(declare-const a Real)
(declare-const b Real)
(declare-const c Real)
(declare-const d Real)
(assert (= (+ a b c d) 4))
(assert (> a 0))
(assert (> b 0))
(assert (> c 0))
(assert (> d 0))
(assert (not (<= (+ (* -1 (pow a 2)) (* (pow (* (pow b 2) (pow c c) (pow d (* 3 d))) (pow (+ 1 c (* 3 d)) -1)) (+ -1 (* -1 c) (* -3 d))) (* 2 a d) (* 2 b d) (* 2 c d)) 0)))
(check-sat)
(get-model)
(exit)